% seed = 0

mint = 18;
% maxt = 69;

nActs = 32;
dur = [0,1,1,2,4,2,2,3,2,2,4,3,3,1,2,2,5,2,3,1,2,2,2,2,1,4,3,1,1,3,3,0];

nSkills = 15;
sreq = [| 0,0,0,0,0,0,0,0,0,0,0,0,0,0,0,
	| 0,0,1,0,1,0,0,1,0,0,0,0,0,4,0,
	| 0,0,0,0,0,0,1,0,0,0,0,0,0,0,0,
	| 0,0,0,0,0,0,0,0,1,0,1,0,2,2,0,
	| 0,1,1,0,0,0,0,1,0,0,1,0,0,1,0,
	| 0,1,1,0,0,1,0,0,1,0,0,0,1,1,0,
	| 0,0,0,0,0,0,0,0,0,0,0,1,0,0,0,
	| 0,0,1,0,0,0,0,0,0,0,0,1,0,1,0,
	| 0,0,0,0,0,0,0,0,0,0,0,0,0,1,0,
	| 0,0,0,0,0,0,0,0,0,0,0,0,0,1,0,
	| 0,0,1,0,1,0,0,0,0,0,1,1,1,2,0,
	| 0,1,1,0,0,0,0,0,0,0,0,0,0,0,1,
	| 0,0,0,0,0,1,0,0,0,0,0,2,1,0,0,
	| 0,0,1,0,0,0,0,1,0,0,0,0,2,2,0,
	| 0,0,1,1,0,0,0,0,0,0,0,0,0,0,0,
	| 0,1,0,0,0,1,0,0,1,0,0,1,0,1,0,
	| 0,0,2,0,1,0,0,0,0,0,0,0,1,0,0,
	| 0,0,0,1,1,0,0,0,0,0,1,1,0,0,0,
	| 0,0,1,0,0,2,0,0,1,0,0,0,1,0,0,
	| 0,0,0,0,0,0,0,0,0,0,0,0,0,1,0,
	| 0,0,0,0,0,0,0,0,0,1,0,0,1,0,0,
	| 0,0,1,0,0,0,0,0,0,0,0,0,1,2,0,
	| 0,0,0,0,0,1,0,0,1,0,0,0,0,0,0,
	| 0,0,1,0,0,0,0,0,1,0,0,0,0,0,0,
	| 0,0,0,0,1,1,0,0,2,0,0,0,0,2,0,
	| 0,0,0,0,2,0,0,1,0,0,0,1,0,0,0,
	| 0,1,0,0,1,1,0,0,0,1,0,0,0,0,0,
	| 1,1,1,0,1,0,0,0,1,0,0,1,1,0,0,
	| 0,0,0,0,0,1,1,0,1,0,0,0,0,0,0,
	| 0,0,0,0,0,0,0,0,2,0,1,0,0,0,0,
	| 0,0,0,0,0,1,0,0,2,0,2,0,0,1,0,
	| 0,0,0,0,0,0,0,0,0,0,0,0,0,0,0, |];

% SumOfsreq = 115;

nResources = 22;
mastery = [| false,false,false,false,false,false,false,false,true,false,false,false,false,false,false,
	| false,false,false,false,false,true,false,false,false,false,false,false,false,false,false,
	| false,false,false,false,false,false,false,false,false,false,false,false,true,true,true,
	| false,false,false,true,true,true,false,false,false,false,false,false,true,true,true,
	| false,false,false,false,false,false,false,true,true,false,false,false,false,false,false,
	| false,true,true,false,false,false,false,false,false,false,false,false,false,false,false,
	| false,false,false,false,false,false,false,false,true,false,false,false,true,true,true,
	| false,false,true,false,false,false,false,false,false,true,true,true,false,false,false,
	| false,false,false,false,false,false,false,false,false,false,true,true,false,false,false,
	| false,false,false,false,false,false,false,false,false,false,false,false,true,true,true,
	| false,false,false,false,false,false,false,false,false,false,true,true,false,true,true,
	| false,false,false,true,true,true,false,false,false,false,false,false,false,false,false,
	| false,false,false,false,false,false,false,false,false,false,false,true,false,false,false,
	| false,false,false,false,false,false,true,true,true,true,true,true,false,false,false,
	| false,false,false,false,true,true,false,false,false,false,true,true,false,false,false,
	| false,false,true,false,false,false,false,false,false,false,false,false,false,false,false,
	| false,false,false,false,false,false,false,true,true,false,false,false,false,false,false,
	| true,true,true,false,false,false,false,false,false,false,false,true,false,false,false,
	| false,false,false,false,false,false,false,false,false,false,false,false,false,true,true,
	| false,false,false,false,false,false,false,false,false,false,false,false,false,true,true,
	| false,false,false,false,true,true,false,false,false,false,false,false,false,false,false,
	| false,false,false,true,true,true,false,false,false,false,false,false,false,false,false, |];

nPrecs = 68;
pred = [1,1,1,2,2,2,3,3,3,4,4,4,5,5,5,6,6,6,7,7,7,8,8,8,9,9,9,10,10,11,11,11,12,12,12,13,13,13,14,14,14,15,15,16,16,17,18,18,19,20,20,20,21,21,22,22,22,23,23,23,24,25,26,27,28,29,30,31];
succ = [2,3,4,20,5,30,6,7,8,10,13,8,17,10,19,11,13,22,9,12,15,26,19,23,17,21,16,18,11,21,31,16,17,20,30,20,14,16,19,27,15,18,23,25,26,18,26,28,24,27,21,31,25,24,27,31,23,25,30,24,28,28,29,29,29,32,32,32];

nUnrels = 197;
unpred = [2,2,2,2,2,2,2,2,2,2,2,2,3,3,3,4,4,4,4,4,4,4,5,5,5,5,5,5,5,5,5,5,5,5,5,6,6,6,6,6,6,7,7,7,7,7,7,7,8,8,8,8,8,8,8,8,8,8,8,8,8,8,8,9,9,9,9,9,9,9,9,9,9,9,9,9,10,10,10,10,10,10,10,10,10,10,10,11,11,11,11,11,11,11,11,11,11,11,11,12,12,12,12,12,12,12,13,13,14,14,14,14,14,14,15,15,15,15,15,15,15,15,16,16,16,16,16,16,16,16,16,16,16,17,17,17,17,17,17,17,17,17,17,18,18,18,18,18,18,18,18,18,18,19,19,19,19,19,19,19,19,19,20,20,20,20,21,21,21,21,21,21,22,23,23,23,24,24,24,24,24,25,25,25,25,26,26,26,26,27,27,27,28,28,29,29,30];
unsucc = [3,4,6,7,8,9,12,13,14,15,22,23,4,5,10,5,6,7,9,12,17,22,6,7,8,9,12,13,14,15,20,22,23,27,30,7,8,9,10,12,17,8,10,11,13,14,19,22,9,10,11,12,13,14,15,16,17,18,20,21,22,27,31,10,11,12,13,14,15,19,20,22,23,27,30,31,12,13,14,15,17,19,20,22,23,27,30,12,13,14,15,17,18,19,20,22,23,27,30,13,14,15,16,19,22,23,17,22,16,17,20,21,22,31,16,17,19,20,21,22,27,31,17,18,19,20,21,22,23,24,27,30,31,19,20,21,22,23,24,25,27,30,31,19,20,21,22,23,24,25,27,30,31,20,21,22,23,25,26,27,30,31,22,23,26,30,22,23,26,27,30,31,26,26,27,31,25,26,27,30,31,26,27,30,31,27,28,30,31,28,30,31,30,31,30,31,31];

USEFUL_RES = [{},
	{3,4,5,6,7,8,10,11,12,14,15,16,17,18,19,20,21,22},
	{14},
	{1,3,4,5,7,8,9,10,11,14,15,17,19,20},
	{3,4,5,6,7,8,9,10,11,14,15,16,17,18,19,20},
	{1,2,3,4,5,6,7,8,10,11,12,14,15,16,17,18,19,20,21,22},
	{8,9,11,13,14,15,18},
	{3,4,6,7,8,9,10,11,13,14,15,16,18,19,20},
	{3,4,7,10,11,19,20},
	{3,4,7,10,11,19,20},
	{3,4,6,7,8,9,10,11,12,13,14,15,16,18,19,20,21,22},
	{3,4,6,7,8,10,11,16,18,19,20},
	{2,3,4,7,8,9,10,11,12,13,14,15,18,21,22},
	{3,4,5,6,7,8,10,11,14,16,17,18,19,20},
	{4,6,8,12,16,18,22},
	{1,2,3,4,5,6,7,8,9,10,11,12,13,14,15,17,18,19,20,21,22},
	{3,4,6,7,8,10,12,15,16,18,21,22},
	{4,8,9,11,12,13,14,15,18,21,22},
	{1,2,3,4,5,6,7,8,10,12,14,15,16,17,18,21,22},
	{3,4,7,10,11,19,20},
	{3,4,7,8,10,14},
	{3,4,6,7,8,10,11,16,18,19,20},
	{1,2,4,5,7,12,14,15,17,21,22},
	{1,5,6,7,8,14,16,17,18},
	{1,2,3,4,5,7,10,11,12,14,15,17,19,20,21,22},
	{4,5,8,9,11,12,13,14,15,17,18,21,22},
	{2,4,6,8,12,14,15,18,21,22},
	{1,3,4,5,6,7,8,9,10,11,12,13,14,15,16,17,18,21,22},
	{1,2,4,5,7,12,14,15,17,21,22},
	{1,5,7,8,9,11,14,15,17},
	{1,2,3,4,5,7,8,9,10,11,12,14,15,17,19,20,21,22},
	{}];

POTENTIAL_ACT = [{4,6,16,19,23,24,25,28,29,30,31},
	{6,13,16,19,23,25,27,29,31},
	{2,4,5,6,8,9,10,11,12,13,14,16,17,19,20,21,22,25,28,31},
	{2,4,5,6,8,9,10,11,12,13,14,15,16,17,18,19,20,21,22,23,25,26,27,28,29,31},
	{2,4,5,6,14,16,19,23,24,25,26,28,29,30,31},
	{2,5,6,8,11,12,14,15,16,17,19,22,24,27,28},
	{2,4,5,6,8,9,10,11,12,13,14,16,17,19,20,21,22,23,24,25,28,29,30,31},
	{2,4,5,6,7,8,11,12,13,14,15,16,17,18,19,21,22,24,26,27,28,30,31},
	{4,5,7,8,11,13,16,18,26,28,30,31},
	{2,4,5,6,8,9,10,11,12,13,14,16,17,19,20,21,22,25,28,31},
	{2,4,5,6,7,8,9,10,11,12,13,14,16,18,20,22,25,26,28,30,31},
	{2,6,11,13,15,16,17,18,19,23,25,26,27,28,29,31},
	{7,8,11,13,16,18,26,28},
	{2,3,4,5,6,7,8,11,13,14,16,18,19,21,23,24,25,26,27,28,29,30,31},
	{2,4,5,6,7,8,11,13,16,17,18,19,23,25,26,27,28,29,30,31},
	{2,5,6,8,11,12,14,15,17,19,22,24,28},
	{2,4,5,6,14,16,19,23,24,25,26,28,29,30,31},
	{2,5,6,7,8,11,12,13,14,15,16,17,18,19,22,24,26,27,28},
	{2,4,5,6,8,9,10,11,12,14,16,20,22,25,31},
	{2,4,5,6,8,9,10,11,12,14,16,20,22,25,31},
	{2,6,11,13,16,17,18,19,23,25,26,27,28,29,31},
	{2,6,11,13,15,16,17,18,19,23,25,26,27,28,29,31}];
